;; unsat

(declare-const x1 sl.list.loc)
(declare-const x2 sl.list.loc)
(declare-const x3 sl.list.loc)
(declare-const x4 sl.list.loc)
(declare-const x5 sl.list.loc)
(declare-const x6 sl.list.loc)
(declare-const x7 sl.list.loc)
(declare-const x8 sl.list.loc)
(declare-const x9 sl.list.loc)
(declare-const x10 sl.list.loc)
(declare-const x11 sl.list.loc)
(declare-const x12 sl.list.loc)
(declare-const x13 sl.list.loc)
(declare-const x14 sl.list.loc)
(declare-const x15 sl.list.loc)
(declare-const x16 sl.list.loc)

(assert (and (sl.sepcon (sl.list.eq sl.list.null sl.list.null)
 (sl.sepcon (sl.sepcon (sl.sepcon (sl.sepcon (sl.sepcon (sl.sepcon (sl.sepcon (sl.sepcon (sl.sepcon (sl.sepcon (sl.sepcon (sl.sepcon (sl.sepcon (sl.sepcon (sl.sepcon (sl.list.seg x2 x12)
 (sl.list.seg x10 x5)
)
 (sl.list.next x14 x3)
)
 (sl.list.next x1 x11)
)
 (sl.list.next x9 x7)
)
 (sl.list.next x16 x10)
)
 (sl.list.next x8 x9)
)
 (sl.list.next x13 x2)
)
 (sl.list.next x4 x3)
)
 (sl.list.next x11 x8)
)
 (sl.list.next x6 x16)
)
 (sl.list.seg x12 x16)
)
 (sl.list.next x5 x1)
)
 (sl.list.next x3 x10)
)
 (sl.list.next x7 x1)
)
 (sl.list.seg x15 x12)
)
)
 (not (sl.sepcon (sl.sepcon (sl.sepcon (sl.sepcon (sl.sepcon (sl.sepcon (sl.sepcon (sl.sepcon (sl.sepcon (sl.list.seg x9 x7)
 (sl.list.seg x6 x16)
)
 (sl.list.seg x14 x3)
)
 (sl.list.seg x4 x3)
)
 (sl.list.seg x13 x12)
)
 (sl.list.seg x15 x12)
)
 (sl.list.seg x12 x16)
)
 (sl.list.seg x3 x10)
)
 (sl.list.seg x16 x1)
)
 (sl.list.seg x7 x9)
)
))
)

